p cnf 342
-9 -94
-10 -97
-11 -100
-12 -103
-13 -106
-14 -109
-15 -112
-16 -115
-17 -117
-18 -119
-19 -121
-20 -123
-21 -125
-22 -127
-23 -129
-24 -131
-25 132
-26 -12
-26 16
12 -16 26
-27 12
-27 -16
-12 16 27
-28 -26
-28 -27
26 27 28
-29 -13
-29 -28
13 28 29
-30 13
-30 28
-13 -28 30
-31 -29
-31 -30
29 30 31
-32 -14
-32 -31
14 31 32
-33 14
-33 31
-14 -31 33
-34 -32
-34 -33
32 33 34
-35 -1
-35 -2
1 2 35
-36 -3
-36 -4
3 4 36
-37 -5
-37 -6
5 6 37
-38 -7
-38 -8
7 8 38
-39 35
-39 36
-35 -36 39
-40 37
-40 38
-37 -38 40
-41 39
-41 40
-39 -40 41
-42 -17
-42 -18
17 18 42
-43 -19
-43 -20
19 20 43
-44 -21
-44 -22
21 22 44
-45 -23
-45 -24
23 24 45
-46 42
-46 43
-42 -43 46
-47 44
-47 45
-44 -45 47
-48 46
-48 47
-46 -47 48
-49 17
-49 -34
-17 34 49
-50 -17
-50 34
17 -34 50
-51 -49
-51 -50
49 50 51
-52 9
-52 18
-9 -18 52
-53 -9
-53 -18
9 18 53
-54 -52
-54 -53
52 53 54
-55 10
-55 19
-10 -19 55
-56 -10
-56 -19
10 19 56
-57 -55
-57 -56
55 56 57
-58 11
-58 20
-11 -20 58
-59 -11
-59 -20
11 20 59
-60 -58
-60 -59
58 59 60
-61 12
-61 21
-12 -21 61
-62 -12
-62 -21
12 21 62
-63 -61
-63 -62
61 62 63
-64 13
-64 22
-13 -22 64
-65 -13
-65 -22
13 22 65
-66 -64
-66 -65
64 65 66
-67 14
-67 23
-14 -23 67
-68 -14
-68 -23
14 23 68
-69 -67
-69 -68
67 68 69
-70 15
-70 24
-15 -24 70
-71 -15
-71 -24
15 24 71
-72 -70
-72 -71
70 71 72
-73 -51
-73 -54
51 54 73
-74 -57
-74 -60
57 60 74
-75 -63
-75 -66
63 66 75
-76 -69
-76 -72
69 72 76
-77 73
-77 74
-73 -74 77
-78 75
-78 76
-75 -76 78
-79 77
-79 78
-77 -78 79
-80 -48
-80 79
48 -79 80
-81 25
-81 80
-25 -80 81
-82 41
-82 81
-41 -81 82
-83 -9
-83 34
9 -34 83
-84 -10
-84 -11
10 11 84
-85 -12
-85 -13
12 13 85
-86 -14
-86 -15
14 15 86
-87 83
-87 84
-83 -84 87
-88 85
-88 86
-85 -86 88
-89 87
-89 88
-87 -88 89
-90 -48
-90 89
48 -89 90
-91 41
-91 -80
-41 80 91
-92 1
-92 -41
-1 41 92
-93 -34
-93 41
34 -41 93
-94 -92
-94 -93
92 93 94
-95 2
-95 -41
-2 41 95
-96 9
-96 41
-9 -41 96
-97 -95
-97 -96
95 96 97
-98 3
-98 -41
-3 41 98
-99 10
-99 41
-10 -41 99
-100 -98
-100 -99
98 99 100
-101 4
-101 -41
-4 41 101
-102 11
-102 41
-11 -41 102
-103 -101
-103 -102
101 102 103
-104 5
-104 -41
-5 41 104
-105 12
-105 41
-12 -41 105
-106 -104
-106 -105
104 105 106
-107 6
-107 -41
-6 41 107
-108 13
-108 41
-13 -41 108
-109 -107
-109 -108
107 108 109
-110 7
-110 -41
-7 41 110
-111 14
-111 41
-14 -41 111
-112 -110
-112 -111
110 111 112
-113 8
-113 -41
-8 41 113
-114 15
-114 41
-15 -41 114
-115 -113
-115 -114
113 114 115
-116 17
-116 41
-17 -41 116
-117 -92
-117 -116
92 116 117
-118 18
-118 41
-18 -41 118
-119 -95
-119 -118
95 118 119
-120 19
-120 41
-19 -41 120
-121 -98
-121 -120
98 120 121
-122 20
-122 41
-20 -41 122
-123 -101
-123 -122
101 122 123
-124 21
-124 41
-21 -41 124
-125 -104
-125 -124
104 124 125
-126 22
-126 41
-22 -41 126
-127 -107
-127 -126
107 126 127
-128 23
-128 41
-23 -41 128
-129 -110
-129 -128
110 128 129
-130 24
-130 41
-24 -41 130
-131 -113
-131 -130
113 130 131
-132 -25
-132 91
25 -91 132
-133 -82
-133 -90
82 90 133
-133
